DATASET = "thpack7";
INSTANCE = "022";

WIDTH = 233;
HEIGHT = 220;
LENGTH = 587;

NO_OF_SHAPES = 20;
size = [|
  89,78,50 |
  73,65,46 |
  94,66,39 |
  66,59,42 |
  106,93,70 |
  80,71,62 |
  60,36,26 |
  72,31,31 |
  63,63,31 |
  74,39,23 |
  105,72,52 |
  101,76,45 |
  93,73,65 |
  74,47,42 |
  72,33,28 |
  99,91,45 |
  79,60,44 |
  81,57,50 |
  99,72,61 |
  38,35,31 |
|];

verticality = [|
  1,1,1 |
  1,1,1 |
  0,1,1 |
  1,1,1 |
  1,1,1 |
  1,1,1 |
  0,1,1 |
  0,1,1 |
  0,0,1 |
  0,1,1 |
  0,1,1 |
  0,1,1 |
  1,1,1 |
  1,1,1 |
  0,1,1 |
  0,0,1 |
  1,1,1 |
  1,1,1 |
  1,1,1 |
  1,1,1 |
|];

box_count = [
  3,
  6,
  7,
  7,
  5,
  2,
  10,
  6,
  6,
  9,
  10,
  11,
  5,
  5,
  8,
  5,
  7,
  7,
  4,
  7,
];
